\ENCODING=ISO-8859-1
\Problem name: 

Minimize
 obj: x1 + x2 + x3 + x4 + x5 + x6 + x7 + x8 + x9 + x10 + x11 + x12 + x13 + x14
      + x15 + x16 + x17 + x18 + x19 + x20 + x21 + x22 + x23 + x24 + x25 + x26
      + x27 + x28 + x29 + x30 + x31 + x32 + x33 + x34 + x35 + x36 + x37 + x38
      + x39 + x40 + x41 + x42 + x43 + x44 + x45 + x46 + x47 + x48 + x49 + x50
Subject To
 c1:  55 x1 >= 48
 c2:  24 x2 >= 35
 c3:  22 x3 >= 24
 c4:  20 x4 >= 10
 c5:  14 x5 >= 8
 c6:  36 x6 >= 48
 c7:  23 x7 >= 35
 c8:  20 x8 >= 24
 c9:  19 x9 >= 10
 c10: 15 x10 >= 8
 c11: 52 x11 >= 48
 c12: 26 x12 >= 35
 c13: 21 x13 >= 24
 c14: 20 x14 >= 10
 c15: 15 x15 >= 8
 c16: 45 x16 >= 48
 c17: 24 x17 >= 35
 c18: 18 x18 >= 24
 c19: 18 x19 >= 10
 c20: 6 x20 >= 8
 c21: 9 x21 >= 48
 c22: 7 x22 >= 35
 c23: 7 x23 >= 24
 c24: 7 x24 >= 10
 c25: 6 x25 >= 8
 c26: 5 x26 >= 48
 c27: 4 x27 >= 35
 c28: 4 x28 >= 24
 c29: 4 x29 >= 10
 c30: 4 x30 >= 8
 c31: 3 x31 >= 48
 c32: 3 x32 >= 35
 c33: 3 x33 >= 24
 c34: 3 x34 >= 10
 c35: 2 x35 >= 48
 c36: 2 x36 >= 35
 c37: 2 x37 >= 24
 c38: 2 x38 >= 10
 c39: 2 x39 >= 8
 c40: 2 x40 >= 48
 c41: 2 x41 >= 35
 c42: 2 x42 >= 24
 c43: x43 >= 10
 c44: x44 >= 8
 c45: x45 >= 48
 c46: x46 >= 35
 c47: x47 >= 24
 c48: x48 >= 10
 c49: x49 >= 8
 c50: 14 x50 >= 8
End
